feasible solution found by trivial heuristic after 0.0 seconds, objective value 0.000000e+00
presolving:
(round 1, fast)       5765 del vars, 840 del conss, 0 add conss, 454 chg bounds, 0 chg sides, 0 chg coeffs, 0 upgd conss, 0 impls, 2476 clqs
(round 2, fast)       5765 del vars, 3863 del conss, 0 add conss, 454 chg bounds, 0 chg sides, 0 chg coeffs, 0 upgd conss, 0 impls, 2476 clqs
   (0.0s) running MILP presolver
   (0.1s) MILP presolver (4 rounds): 117 aggregations, 0 fixings, 0 bound changes
(round 3, medium)     5882 del vars, 3863 del conss, 0 add conss, 454 chg bounds, 0 chg sides, 0 chg coeffs, 0 upgd conss, 0 impls, 2093 clqs
(round 4, fast)       5882 del vars, 3980 del conss, 0 add conss, 454 chg bounds, 0 chg sides, 0 chg coeffs, 0 upgd conss, 0 impls, 2623 clqs
(round 5, exhaustive) 5882 del vars, 3989 del conss, 0 add conss, 454 chg bounds, 1 chg sides, 0 chg coeffs, 0 upgd conss, 0 impls, 2623 clqs
(round 6, exhaustive) 5882 del vars, 3989 del conss, 0 add conss, 454 chg bounds, 1 chg sides, 0 chg coeffs, 2599 upgd conss, 0 impls, 2623 clqs
(round 7, medium)     5882 del vars, 4038 del conss, 175 add conss, 454 chg bounds, 215 chg sides, 555 chg coeffs, 2599 upgd conss, 0 impls, 2732 clqs
   (0.6s) probing cycle finished: starting next cycle
   (0.6s) symmetry computation started: requiring (bin +, int -, cont +), (fixed: bin -, int +, cont -)
   (0.7s) no symmetry present
presolving (8 rounds: 8 fast, 5 medium, 3 exhaustive):
 5882 deleted vars, 4039 deleted constraints, 175 added constraints, 454 tightened bounds, 0 added holes, 215 changed sides, 555 changed coefficients
 0 implications, 13840 cliques
presolved problem has 705 variables (705 bin, 0 int, 0 impl, 0 cont) and 2724 constraints
   2631 constraints of type <setppc>
     93 constraints of type <logicor>
transformed objective value is always integral (scale: 1)
Presolving Time: 0.64
transformed 1/1 original solutions to the transformed problem space

 time | node  | left  |LP iter|LP it/n|mem/heur|mdpt |vars |cons |rows |cuts |sepa|confs|strbr|  dualbound   | primalbound  |  gap   | compl. 
p 0.7s|     1 |     0 |     0 |     - |  clique|   0 | 705 |2724 |2724 |   0 |  0 |   0 |   0 | 3.873400e+04 | 6.536000e+03 | 492.63%| unknown
p 0.7s|     1 |     0 |    42 |     - | vbounds|   0 | 705 |2724 |2724 |   0 |  0 |   0 |   0 | 3.873400e+04 | 8.045000e+03 | 381.47%| unknown
  0.8s|     1 |     0 |  1253 |     - |    36M |   0 | 705 |2742 |2724 |   0 |  0 |  18 |   0 | 1.408250e+04 | 8.045000e+03 |  75.05%| unknown
  1.0s|     1 |     0 |  1378 |     - |    39M |   0 | 705 |2742 |2725 |   1 |  1 |  18 |   0 | 1.389950e+04 | 8.045000e+03 |  72.77%| unknown
  1.1s|     1 |     0 |  1822 |     - |    39M |   0 | 705 |2743 |2744 |  20 |  2 |  19 |   0 | 1.335483e+04 | 8.045000e+03 |  66.00%| unknown
  1.3s|     1 |     0 |  2065 |     - |    40M |   0 | 705 |2744 |2753 |  29 |  3 |  20 |   0 | 1.319650e+04 | 8.045000e+03 |  64.03%| unknown
  1.4s|     1 |     0 |  2260 |     - |    40M |   0 | 705 |2745 |2761 |  37 |  4 |  21 |   0 | 1.311258e+04 | 8.045000e+03 |  62.99%| unknown
  1.5s|     1 |     0 |  2456 |     - |    41M |   0 | 705 |2745 |2766 |  42 |  5 |  21 |   0 | 1.303492e+04 | 8.045000e+03 |  62.03%| unknown
  1.7s|     1 |     0 |  2692 |     - |    43M |   0 | 705 |2745 |2777 |  53 |  6 |  21 |   0 | 1.294978e+04 | 8.045000e+03 |  60.97%| unknown
  1.8s|     1 |     0 |  2932 |     - |    45M |   0 | 705 |2745 |2787 |  63 |  7 |  21 |   0 | 1.286442e+04 | 8.045000e+03 |  59.91%| unknown
  1.9s|     1 |     0 |  3170 |     - |    47M |   0 | 705 |2745 |2796 |  72 |  8 |  21 |   0 | 1.279714e+04 | 8.045000e+03 |  59.07%| unknown
  2.0s|     1 |     0 |  3359 |     - |    49M |   0 | 705 |2745 |2803 |  79 |  9 |  21 |   0 | 1.274564e+04 | 8.045000e+03 |  58.43%| unknown
  2.2s|     1 |     0 |  3551 |     - |    49M |   0 | 705 |2746 |2813 |  89 | 10 |  22 |   0 | 1.270876e+04 | 8.045000e+03 |  57.97%| unknown
  2.2s|     1 |     0 |  3792 |     - |    50M |   0 | 705 |2747 |2821 |  97 | 11 |  23 |   0 | 1.266599e+04 | 8.045000e+03 |  57.44%| unknown
  2.3s|     1 |     0 |  4050 |     - |    50M |   0 | 705 |2747 |2830 | 106 | 12 |  23 |   0 | 1.262056e+04 | 8.045000e+03 |  56.87%| unknown
 time | node  | left  |LP iter|LP it/n|mem/heur|mdpt |vars |cons |rows |cuts |sepa|confs|strbr|  dualbound   | primalbound  |  gap   | compl. 
  2.3s|     1 |     0 |  4199 |     - |    50M |   0 | 705 |2747 |2837 | 113 | 13 |  23 |   0 | 1.258882e+04 | 8.045000e+03 |  56.48%| unknown
  2.4s|     1 |     0 |  4323 |     - |    51M |   0 | 705 |2748 |2841 | 117 | 14 |  24 |   0 | 1.257108e+04 | 8.045000e+03 |  56.26%| unknown
  2.4s|     1 |     0 |  4411 |     - |    51M |   0 | 705 |2748 |2845 | 121 | 15 |  24 |   0 | 1.255881e+04 | 8.045000e+03 |  56.11%| unknown
  2.4s|     1 |     0 |  4494 |     - |    51M |   0 | 705 |2749 |2845 | 124 | 16 |  25 |   0 | 1.255257e+04 | 8.045000e+03 |  56.03%| unknown
  2.5s|     1 |     0 |  4672 |     - |    51M |   0 | 705 |2750 |2852 | 131 | 17 |  26 |   0 | 1.252144e+04 | 8.045000e+03 |  55.64%| unknown
  2.5s|     1 |     0 |  4815 |     - |    52M |   0 | 705 |2750 |2857 | 136 | 18 |  26 |   0 | 1.250045e+04 | 8.045000e+03 |  55.38%| unknown
  2.6s|     1 |     0 |  4971 |     - |    52M |   0 | 705 |2751 |2862 | 141 | 19 |  27 |   0 | 1.248489e+04 | 8.045000e+03 |  55.19%| unknown
  2.6s|     1 |     0 |  5034 |     - |    52M |   0 | 705 |2751 |2867 | 146 | 20 |  27 |   0 | 1.247862e+04 | 8.045000e+03 |  55.11%| unknown
  2.6s|     1 |     0 |  5134 |     - |    52M |   0 | 705 |2751 |2874 | 153 | 21 |  27 |   0 | 1.247039e+04 | 8.045000e+03 |  55.01%| unknown
  2.7s|     1 |     0 |  5233 |     - |    53M |   0 | 705 |2752 |2870 | 159 | 22 |  28 |   0 | 1.246469e+04 | 8.045000e+03 |  54.94%| unknown
  2.7s|     1 |     0 |  5304 |     - |    53M |   0 | 705 |2753 |2872 | 161 | 23 |  29 |   0 | 1.246167e+04 | 8.045000e+03 |  54.90%| unknown
  2.7s|     1 |     0 |  5412 |     - |    53M |   0 | 705 |2753 |2877 | 166 | 24 |  29 |   0 | 1.245246e+04 | 8.045000e+03 |  54.79%| unknown
  2.7s|     1 |     0 |  5441 |     - |    53M |   0 | 705 |2753 |2880 | 169 | 25 |  29 |   0 | 1.245187e+04 | 8.045000e+03 |  54.78%| unknown
  2.8s|     1 |     0 |  5442 |     - |    53M |   0 | 705 |2754 |2881 | 170 | 26 |  30 |   0 | 1.245187e+04 | 8.045000e+03 |  54.78%| unknown
  2.8s|     1 |     0 |  5459 |     - |    53M |   0 | 705 |2754 |2883 | 172 | 27 |  30 |   0 | 1.245161e+04 | 8.045000e+03 |  54.77%| unknown
 time | node  | left  |LP iter|LP it/n|mem/heur|mdpt |vars |cons |rows |cuts |sepa|confs|strbr|  dualbound   | primalbound  |  gap   | compl. 
  2.8s|     1 |     0 |  5490 |     - |    53M |   0 | 705 |2754 |2876 | 175 | 28 |  30 |   0 | 1.245131e+04 | 8.045000e+03 |  54.77%| unknown
  2.8s|     1 |     0 |  5500 |     - |    53M |   0 | 705 |2754 |2878 | 177 | 30 |  30 |   0 | 1.245103e+04 | 8.045000e+03 |  54.77%| unknown
  2.9s|     1 |     0 |  5524 |     - |    53M |   0 | 705 |2754 |2881 | 180 | 31 |  30 |   0 | 1.245072e+04 | 8.045000e+03 |  54.76%| unknown
  2.9s|     1 |     0 |  5532 |     - |    53M |   0 | 705 |2755 |2885 | 184 | 32 |  31 |   0 | 1.245055e+04 | 8.045000e+03 |  54.76%| unknown
  2.9s|     1 |     0 |  5538 |     - |    53M |   0 | 705 |2755 |2886 | 185 | 33 |  31 |   0 | 1.245053e+04 | 8.045000e+03 |  54.76%| unknown
d 3.3s|     1 |     0 |  7589 |     - |farkasdi|   0 | 705 |2755 |2886 |   0 | 34 |  31 |   0 | 1.245053e+04 | 1.130400e+04 |  10.14%| unknown
  3.7s|     1 |     0 | 10213 |     - |    54M |   0 | 705 |2757 |2886 | 185 | 34 |  33 |   0 | 1.245053e+04 | 1.130400e+04 |  10.14%| unknown
  3.7s|     1 |     0 | 10220 |     - |    54M |   0 | 705 |2757 |2887 | 186 | 35 |  33 |   0 | 1.245052e+04 | 1.130400e+04 |  10.14%| unknown
  5.9s|     1 |     2 | 10220 |     - |    54M |   0 | 705 |2757 |2887 | 186 | 36 |  33 |  27 | 1.240080e+04 | 1.130400e+04 |   9.70%| unknown
* 8.1s|     4 |     3 | 11396 |1964.3 |strongbr|   3 | 705 |2780 |2861 | 186 |  7 |  56 | 113 | 1.240080e+04 | 1.133200e+04 |   9.43%| unknown
* 8.2s|     4 |     3 | 11462 |1986.3 |strongbr|   3 | 705 |2783 |2861 | 186 |  8 |  59 | 126 | 1.240080e+04 | 1.136900e+04 |   9.08%| unknown
* 8.3s|     4 |     3 | 11499 |1998.7 |strongbr|   3 | 705 |2786 |2861 | 186 | 10 |  62 | 134 | 1.240080e+04 | 1.137600e+04 |   9.01%| unknown
*12.8s|    14 |     5 | 13762 | 635.3 |strongbr|   5 | 705 |2823 |2861 | 186 |  1 |  99 | 298 | 1.236854e+04 | 1.142500e+04 |   8.26%|  20.66%
*15.9s|    20 |     5 | 15406 | 521.2 |strongbr|   8 | 705 |2931 |2861 | 186 |  1 | 207 | 506 | 1.236854e+04 | 1.146400e+04 |   7.89%|  25.72%
*15.9s|    20 |     5 | 15406 | 521.2 |strongbr|   8 | 705 |2931 |2861 | 186 |  1 | 207 | 508 | 1.236854e+04 | 1.147100e+04 |   7.82%|  25.72%
 time | node  | left  |LP iter|LP it/n|mem/heur|mdpt |vars |cons |rows |cuts |sepa|confs|strbr|  dualbound   | primalbound  |  gap   | compl. 
*16.1s|    21 |     4 | 15501 | 499.9 |strongbr|   8 | 705 |2952 |2861 | 186 |  5 | 228 | 532 | 1.236854e+04 | 1.149600e+04 |   7.59%|  25.86%
 20.9s|   100 |    11 | 24417 | 191.1 |    59M |  12 | 705 |3028 |2868 | 220 |  2 | 304 | 688 | 1.233168e+04 | 1.149600e+04 |   7.27%|  36.46%
 26.1s|   200 |    11 | 38630 | 166.5 |    79M |  15 | 705 |3046 |2869 | 333 |  2 | 322 | 731 | 1.223439e+04 | 1.149600e+04 |   6.42%|  41.58%
 31.0s|   300 |    13 | 53146 | 159.3 |    90M |  20 | 705 |3055 |2876 | 442 |  1 | 331 | 752 | 1.221998e+04 | 1.149600e+04 |   6.30%|  43.96%
 34.6s|   400 |    13 | 65236 | 149.7 |    93M |  20 | 705 |3069 |2903 | 501 |  1 | 345 | 790 | 1.217088e+04 | 1.149600e+04 |   5.87%|  50.13%
*36.9s|   448 |    13 | 71651 | 148.0 |    LP  |  20 | 705 |3099 |2909 | 540 |  2 | 375 | 822 | 1.217088e+04 | 1.152500e+04 |   5.60%|  51.73%
*37.3s|   461 |    14 | 72737 | 146.2 |    LP  |  20 | 705 |3109 |2909 | 540 |  2 | 385 | 835 | 1.217088e+04 | 1.153400e+04 |   5.52%|  53.14%
*37.3s|   463 |    14 | 72812 | 145.7 |    LP  |  20 | 705 |3109 |2909 | 540 |  2 | 385 | 835 | 1.217088e+04 | 1.153500e+04 |   5.51%|  53.21%
*37.3s|   468 |    13 | 72906 | 144.3 |    LP  |  20 | 705 |3109 |2909 | 540 |  1 | 385 | 835 | 1.217088e+04 | 1.154000e+04 |   5.47%|  53.59%
 37.7s|   500 |    13 | 74637 | 138.5 |    94M |  21 | 705 |3109 |2910 | 544 |  1 | 385 | 835 | 1.217088e+04 | 1.154000e+04 |   5.47%|  55.23%
*40.6s|   579 |    12 | 84310 | 136.3 |    LP  |  21 | 705 |3120 |2916 | 594 |  2 | 396 | 855 | 1.211106e+04 | 1.154200e+04 |   4.93%|  60.90%
*40.6s|   581 |    12 | 84572 | 136.3 |strongbr|  21 | 705 |3120 |2916 | 594 |  1 | 396 | 855 | 1.211106e+04 | 1.154900e+04 |   4.87%|  61.04%
*40.8s|   588 |    11 | 85578 | 136.4 |strongbr|  21 | 705 |3132 |2917 | 595 |  2 | 408 | 861 | 1.211106e+04 | 1.155200e+04 |   4.84%|  61.78%
 41.7s|   600 |    15 | 87600 | 137.1 |    98M |  21 | 705 |3134 |2902 | 609 |  2 | 410 | 873 | 1.210688e+04 | 1.155200e+04 |   4.80%|  62.37%
 45.8s|   700 |    17 |102369 | 138.6 |   100M |  22 | 705 |3166 |2911 | 682 |  1 | 442 | 929 | 1.204179e+04 | 1.155200e+04 |   4.24%|  66.65%
 time | node  | left  |LP iter|LP it/n|mem/heur|mdpt |vars |cons |rows |cuts |sepa|confs|strbr|  dualbound   | primalbound  |  gap   | compl. 
 49.0s|   800 |    15 |115399 | 137.5 |   101M |  22 | 705 |3203 |2902 | 761 |  1 | 479 | 971 | 1.194977e+04 | 1.155200e+04 |   3.44%|  75.21%
 51.8s|   900 |     7 |128331 | 136.6 |   101M |  22 | 705 |3270 |2901 | 797 |  0 | 546 |1051 | 1.193520e+04 | 1.155200e+04 |   3.32%|  86.51%

SCIP Status        : problem is solved [optimal solution found]
Solving Time (sec) : 54.23
Solving Nodes      : 945
Primal Bound       : +1.15520000000000e+04 (21 solutions)
Dual Bound         : +1.15520000000000e+04
Gap                : 0.00 %
Solve Status: optimal
Solve Time: 54.23 seconds
